91Pa
 $contrl jobtype='energy' $end
 $nuc znuc=91 nucmdl=3 $end
 $bas nsym=7  bastype='rdin' $end
35
   3.2777474514072306E-02
   6.1052208024089318E-02
   1.1371779544172864E-01
   2.1181678224305334E-01
   3.9455421330447510E-01
   7.3499993917294237E-01
   1.3694267119018748E+00
   2.5522453323068639E+00
   4.7592004160127050E+00
   8.8821010163462422E+00
   1.6598538397889143E+01
   3.1079527707765703E+01
   5.8358006063602978E+01
   1.1000966104096939E+02
   2.0848750508658674E+02
   3.9793692474094433E+02
   7.6660358942891128E+02
   1.4944323346681333E+03
   2.9570621576747585E+03
   5.9602824302208819E+03
   1.2287273922270530E+04
   2.6025474503929181E+04
   5.6920167949008617E+04
   1.2924146561822579E+05
   3.0640047899595002E+05
   7.6297421342751326E+05
   2.0076698631188064E+06
   5.6164425941082174E+06
   1.6802885560418982E+07
   5.4065392869313173E+07
   1.8809445122304142E+08
   7.1100930633447683E+08
   2.9330970963636436E+09
   1.3255935848588299E+10
   6.5852664686153687E+10
30
   3.2777474514072306E-02
   6.1052208024089318E-02
   1.1371779544172864E-01
   2.1181678224305334E-01
   3.9455421330447510E-01
   7.3499993917294237E-01
   1.3694267119018748E+00
   2.5522453323068639E+00
   4.7592004160127050E+00
   8.8821010163462422E+00
   1.6598538397889143E+01
   3.1079527707765703E+01
   5.8358006063602978E+01
   1.1000966104096939E+02
   2.0848750508658674E+02
   3.9793692474094433E+02
   7.6660358942891128E+02
   1.4944323346681333E+03
   2.9570621576747585E+03
   5.9602824302208819E+03
   1.2287273922270530E+04
   2.6025474503929181E+04
   5.6920167949008617E+04
   1.2924146561822579E+05
   3.0640047899595002E+05
   7.6297421342751326E+05
   2.0076698631188064E+06
   5.6164425941082174E+06
   1.6802885560418982E+07
   5.4065392869313173E+07
30
   3.2777474514072306E-02
   6.1052208024089318E-02
   1.1371779544172864E-01
   2.1181678224305334E-01
   3.9455421330447510E-01
   7.3499993917294237E-01
   1.3694267119018748E+00
   2.5522453323068639E+00
   4.7592004160127050E+00
   8.8821010163462422E+00
   1.6598538397889143E+01
   3.1079527707765703E+01
   5.8358006063602978E+01
   1.1000966104096939E+02
   2.0848750508658674E+02
   3.9793692474094433E+02
   7.6660358942891128E+02
   1.4944323346681333E+03
   2.9570621576747585E+03
   5.9602824302208819E+03
   1.2287273922270530E+04
   2.6025474503929181E+04
   5.6920167949008617E+04
   1.2924146561822579E+05
   3.0640047899595002E+05
   7.6297421342751326E+05
   2.0076698631188064E+06
   5.6164425941082174E+06
   1.6802885560418982E+07
   5.4065392869313173E+07
25
   3.2777474514072306E-02
   6.1052208024089318E-02
   1.1371779544172864E-01
   2.1181678224305334E-01
   3.9455421330447510E-01
   7.3499993917294237E-01
   1.3694267119018748E+00
   2.5522453323068639E+00
   4.7592004160127050E+00
   8.8821010163462422E+00
   1.6598538397889143E+01
   3.1079527707765703E+01
   5.8358006063602978E+01
   1.1000966104096939E+02
   2.0848750508658674E+02
   3.9793692474094433E+02
   7.6660358942891128E+02
   1.4944323346681333E+03
   2.9570621576747585E+03
   5.9602824302208819E+03
   1.2287273922270530E+04
   2.6025474503929181E+04
   5.6920167949008617E+04
   1.2924146561822579E+05
   3.0640047899595002E+05
25
   3.2777474514072306E-02
   6.1052208024089318E-02
   1.1371779544172864E-01
   2.1181678224305334E-01
   3.9455421330447510E-01
   7.3499993917294237E-01
   1.3694267119018748E+00
   2.5522453323068639E+00
   4.7592004160127050E+00
   8.8821010163462422E+00
   1.6598538397889143E+01
   3.1079527707765703E+01
   5.8358006063602978E+01
   1.1000966104096939E+02
   2.0848750508658674E+02
   3.9793692474094433E+02
   7.6660358942891128E+02
   1.4944323346681333E+03
   2.9570621576747585E+03
   5.9602824302208819E+03
   1.2287273922270530E+04
   2.6025474503929181E+04
   5.6920167949008617E+04
   1.2924146561822579E+05
   3.0640047899595002E+05
20
   3.2777474514072306E-02
   6.1052208024089318E-02
   1.1371779544172864E-01
   2.1181678224305334E-01
   3.9455421330447510E-01
   7.3499993917294237E-01
   1.3694267119018748E+00
   2.5522453323068639E+00
   4.7592004160127050E+00
   8.8821010163462422E+00
   1.6598538397889143E+01
   3.1079527707765703E+01
   5.8358006063602978E+01
   1.1000966104096939E+02
   2.0848750508658674E+02
   3.9793692474094433E+02
   7.6660358942891128E+02
   1.4944323346681333E+03
   2.9570621576747585E+03
   5.9602824302208819E+03
20
   3.2777474514072306E-02
   6.1052208024089318E-02
   1.1371779544172864E-01
   2.1181678224305334E-01
   3.9455421330447510E-01
   7.3499993917294237E-01
   1.3694267119018748E+00
   2.5522453323068639E+00
   4.7592004160127050E+00
   8.8821010163462422E+00
   1.6598538397889143E+01
   3.1079527707765703E+01
   5.8358006063602978E+01
   1.1000966104096939E+02
   2.0848750508658674E+02
   3.9793692474094433E+02
   7.6660358942891128E+02
   1.4944323346681333E+03
   2.9570621576747585E+03
   5.9602824302208819E+03
 $econfig nclose=7 5 5 3 3 1 1 nopen=0 0 0 1 1 1 1 nconf=6 $end
 0.0 0.0 0.0 1.0 0.0 0.0 2.0
 0.0 0.0 0.0 1.0 0.0 1.0 1.0
 0.0 0.0 0.0 1.0 0.0 2.0 0.0
 0.0 0.0 0.0 0.0 1.0 0.0 2.0
 0.0 0.0 0.0 0.0 1.0 1.0 1.0
 0.0 0.0 0.0 0.0 1.0 2.0 0.0
 $scf maxitr=100 ixtrp=1 dfctr=0.5 $end

